NAME: face_opt
TYPE: TOUR
DIMENSION: 191
TOUR_SECTION
3
4
5
6
7
15
21
37
36
49
50
60
61
67
79
78
80
68
39
38
22
24
30
40
51
70
69
81
87
99
93
94
100
111
120
110
105
98
92
86
85
91
116
130
131
143
142
141
163
162
151
107
75
63
54
26
42
73
72
89
83
43
53
74
102
96
90
84
97
124
112
122
123
135
157
172
173
174
180
181
175
140
128
139
149
148
161
160
159
158
145
136
125
137
146
147
138
127
126
113
114
115
129
150
167
176
182
168
152
169
153
154
132
117
108
103
104
109
118
119
133
144
155
165
164
170
177
184
183
190
189
188
187
186
191
185
179
178
171
166
156
134
121
106
101
95
88
82
71
62
52
41
31
32
25
16
8
9
10
1
12
19
28
35
48
58
11
18
17
27
33
34
46
47
57
56
45
44
55
64
76
65
77
66
59
29
23
14
20
13
2
-1
EOF
